2023/11/29
gurobi is now 11.0.0
previous version was 10.0.3
solving instance knapsack 20 9 square
Couenne 0.5.8 -- an Open-Source solver for Mixed Integer Nonlinear Optimization
Mailing list: couenne@list.coin-or.org
Instructions: http://www.coin-or.org/Couenne
couenne: 
ANALYSIS TEST: Couenne: new cutoff value -3.9499772099e+01 (0.006531 seconds)
NLP0012I 
              Num      Status      Obj             It       time                 Location
NLP0014I             1         OPT -630.22222      653 0.9403
Couenne: new cutoff value -6.3022221442e+02 (0.952289 seconds)
NLP0014I             2         OPT -630.22222       15 0.016635
Couenne: new cutoff value -6.3022221954e+02 (0.969719 seconds)
Loaded instance "/tmp/jl_2Oc2ai/model.nl"
Constraints:           61
Variables:             60 (20 integer)
Auxiliaries:           22 (0 integer)

Coin0506I Presolve 121 (-21) rows, 60 (-22) columns and 279 (-42) elements
Clp0006I 0  Obj -723.79621 Primal inf 13526.207 (20)
Clp0006I 47  Obj -637.9448 Primal inf 1304.9327 (4)
Clp0006I 49  Obj -636.55974
Clp0000I Optimal - objective value -636.55974
Clp0032I Optimal objective -636.5597429 - 49 iterations time 0.002, Presolve 0.00
Clp0000I Optimal - objective value -636.55974
NLP Heuristic: time limit reached.
Clp0000I Optimal - objective value -636.55974
Optimality Based BT: 3 improved bounds
Probing: 0 improved bounds
NLP Heuristic: time limit reached.
Cbc0013I At root node, 0 cuts changed objective from -636.55974 to -636.55974 in 1 passes
Cbc0014I Cut generator 0 (Couenne convexifier cuts) - 0 row cuts average 0.0 elements, 9 column cuts (9 active)
Cbc0010I After 0 nodes, 1 on tree, 1e+50 best solution, best possible -1.7976931e+308 (0.03 seconds)
Optimality Based BT: 11 improved bounds
Optimality Based BT: 10 improved bounds
Optimality Based BT: 11 improved bounds
Couenne: new cutoff value -6.3259675737e+02 (1.14305 seconds)
Optimality Based BT: 10 improved bounds
Cbc0004I Integer solution of -632.59676 found after 24 iterations and 5 nodes (0.35 seconds)
Optimality Based BT: 10 improved bounds
Couenne: new cutoff value -6.3430376063e+02 (1.43995 seconds)
Cbc0004I Integer solution of -634.30376 found after 163 iterations and 44 nodes (0.58 seconds)
Cbc0001I Search completed - best objective -634.3037606260161, took 163 iterations and 44 nodes (0.58 seconds)
Cbc0035I Maximum depth 20, 0 variables fixed on reduced cost

 	"Finished"

Linearization cuts added at root node:        142
Linearization cuts added in total:            142  (separation time: 0.000343s)
Total solve time:                        0.581359s (0.581358s in branch-and-bound)
Lower bound:                             -634.304
Upper bound:                             -634.304  (gap: 0.00%)
Branch-and-bound nodes:                        44
Stats: /tmp/jl_2Oc2ai/model.nl   60 [var]   20 [int]   61 [con]   22 [aux]    142 [root]      142 [tot] 0.000343 [sep] 0.581361 [time] 0.581505 [bb]        -6.343038e+02 [lower]        -6.343038e+02 [upper]      44 [nodes]
Performance of                           FBBT:	   0.002165s,       52 runs. fix:  0.0382233 shrnk:    23.0571 ubd:          0 2ubd:          1 infeas:          0
Performance of                           OBBT:	   0.083466s,        6 runs. fix:   0.333333 shrnk:    22.5482 ubd:          0 2ubd:          1 infeas:          0
primal_bound = -634.303760626016, dual_bound = 0.0, gap = 100.0, time = 5.05
